NAME : OMNETRUN
COMMENT : 524.61
TYPE : CVRP
DIMENSION : 21
EDGE_WEIGHT_TYPE : EUC_2D
CAPACITY : 21
NODE_COORD_SECTION
1 0.107093 -0.77924
2 242.479 2.10617
3 124.302 -726.597
4 39.9232 -1694
5 76.2566 -2542.91
6 49.5197 -3270.12
7 23.5936 -3924.12
8 304.73 -1213.77
9 401.98 -1749.61
10 298.078 -2985.09
11 325.85 -4177.8
12 458.74 -4557.38
13 342.872 -5530.93
14 561.235 -157.263
15 701.947 -1960.79
16 502.089 -2440.8
17 566.103 -3320.12
18 549.852 -3729.88
19 508.838 -5139.5
20 512.812 -5971.5
21 810.845 -768.126
DEMAND_SECTION
1 0
2 1
3 1
4 1
5 1
6 1
7 1
8 1
9 1
10 1
11 1
12 1
13 1
14 1
15 1
16 1
17 1
18 1
19 1
20 1
21 1
DEPOT_SECTION
1
-1
EOF
